
Gurobi 6.0.4 (win64) logging started 06/21/15 19:09:26

Read LP format model from file C:\MT\repository\VRPTWMS\instances\mip\fuel\N6-C_DV100-C_SV30_F6_11_No_1.lp
Reading time = 0.00 seconds
(null): 253 rows, 128 columns, 957 nonzeros
Optimize a model with 253 rows, 128 columns and 957 nonzeros
Model has 216 quadratic constraints
Coefficient statistics:
  Matrix range    [1e+00, 1e+06]
  Objective range [5e+04, 1e+07]
  Bounds range    [1e+00, 1e+06]
  RHS range       [1e+00, 1e+06]
Presolve removed 61 rows and 24 columns
Presolve time: 0.08s
Presolved: 482 rows, 249 columns, 2394 nonzeros
Variable types: 145 continuous, 104 integer (81 binary)
Found heuristic solution: objective 3.150270e+07

Root relaxation: objective 1.139094e+07, 43 iterations, 0.00 seconds

    Nodes    |    Current Node    |     Objective Bounds      |     Work
 Expl Unexpl |  Obj  Depth IntInf | Incumbent    BestBd   Gap | It/Node Time

     0     0 1.1391e+07    0   19 3.1503e+07 1.1391e+07  63.8%     -    0s
     0     0 1.1576e+07    0   19 3.1503e+07 1.1576e+07  63.3%     -    0s
H    0     0                    2.155610e+07 1.1576e+07  46.3%     -    0s
     0     0 1.1963e+07    0   26 2.1556e+07 1.1963e+07  44.5%     -    0s
     0     0 1.3170e+07    0   24 2.1556e+07 1.3170e+07  38.9%     -    0s
     0     0 1.3172e+07    0   25 2.1556e+07 1.3172e+07  38.9%     -    0s
     0     0 1.3172e+07    0   25 2.1556e+07 1.3172e+07  38.9%     -    0s
     0     0 1.3172e+07    0   25 2.1556e+07 1.3172e+07  38.9%     -    0s
H    0     0                    2.136830e+07 1.3172e+07  38.4%     -    0s
     0     0 1.3172e+07    0   22 2.1368e+07 1.3172e+07  38.4%     -    0s
     0     0     cutoff    0      2.1368e+07 2.1368e+07  0.00%     -    0s

Cutting planes:
  Learned: 1
  Gomory: 1
  Cover: 2
  Implied bound: 1
  Clique: 10
  MIR: 3

Explored 0 nodes (229 simplex iterations) in 0.15 seconds
Thread count was 2 (of 4 available processors)

Optimal solution found (tolerance 1.00e-04)
Best objective 2.136830000000e+07, best bound 2.136830000000e+07, gap 0.0%
k_c1	190000.0
k_c2	160000.0
k_c3	40000.0
k_c4	939999.0
k_c5	210000.0
k_c6	230000.0
k_dN	-0.0
o_1	0.0
o_2	0.0
o_3	0.0
o_4	0.0
o_5	0.0
o_6	0.0
p_1	0.0
p_2	0.0
p_3	0.0
p_4	0.0
p_5	0.0
p_6	0.0
phi_c1	32436.0
phi_c2	6673.0
phi_c3	24178.0
phi_c4	42645.999999999985
phi_c5	47747.0
phi_c6	53427.0
phi_d0	60000.0
phi_dN	-0.0
tauD_c1	546425.0
tauD_c2	650000.0
tauD_c3	713237.0
tauD_c4	100000.0
tauD_c5	400000.0
tauD_c6	338775.0
tauD_d0	-0.0
tauD_dN	1000000.0
tauS_c1	0.0
tauS_c2	0.0
tauS_c3	0.0
tauS_c4	0.0
tauS_c5	0.0
tauS_c6	0.0
tauS_d0	-0.0
tauS_dN	1000000.0
x_c1_c2	1.0
x_c2_dN	1.0
x_c3_dN	1.0
x_c4_c1	1.0
x_c5_c3	1.0
x_c6_c5	1.0
x_d0_c4	1.0
x_d0_c6	1.0
